c User generated cnf file
p cnf 9 40
3 4 -9 0 
6 -1 8 0 
9 9 -3 0 
2 -4 9 0 
2 -9 2 0 
4 6 -3 0 
9 7 -2 0 
8 -7 2 0 
8 -7 7 0 
5 5 -5 0 
2 -3 1 0 
2 -4 3 0 
1 -7 8 0 
4 9 -6 0 
9 6 -8 0 
4 -4 4 0 
5 8 -6 0 
3 4 -4 0 
9 -5 1 0 
2 -1 4 0 
7 6 -4 0 
3 -2 8 0 
9 -6 5 0 
8 -8 1 0 
9 3 -8 0 
2 2 -1 0 
9 5 -9 0 
8 -7 9 0 
7 8 -2 0 
5 -2 6 0 
3 4 -1 0 
8 -7 2 0 
4 -1 3 0 
5 -9 5 0 
9 9 -8 0 
2 -7 7 0 
1 8 -7 0 
3 4 -2 0 
3 -7 6 0 
8 -4 9 0 
